<?xml version="1.0" encoding="UTF-8"?><osil xmlns="os.optimizationservices.org"   xmlns:xsi="http://www.w3.org/2001/XMLSchema-instance" xsi:schemaLocation="os.optimizationservices.org http://www.optimizationservices.org/schemas/2.0/OSiL.xsd" ><instanceHeader><name>q_20_0_25_2</name></instanceHeader><instanceData><variables numberOfVariables="20"><var name="x1" ub="1"/><var name="x2" ub="1"/><var name="x3" ub="1"/><var name="x4" ub="1"/><var name="x5" ub="1"/><var name="x6" ub="1"/><var name="x7" ub="1"/><var name="x8" ub="1"/><var name="x9" ub="1"/><var name="x10" ub="1"/><var name="x11" ub="1"/><var name="x12" ub="1"/><var name="x13" ub="1"/><var name="x14" ub="1"/><var name="x15" ub="1"/><var name="x16" ub="1"/><var name="x17" ub="1"/><var name="x18" ub="1"/><var name="x19" ub="1"/><var name="x20" ub="1"/></variables><objectives numberOfObjectives="1"><obj maxOrMin="min" name="defObj_x21" numberOfObjCoef="20"><coef idx="0">.5307</coef><coef idx="1">.753</coef><coef idx="2">-.8016</coef><coef idx="3">-.331</coef><coef idx="4">.2902</coef><coef idx="5">-.7368</coef><coef idx="6">.6151</coef><coef idx="7">8.37e-2</coef><coef idx="8">-.4685</coef><coef idx="9">-8.23e-2</coef><coef idx="10">2.19e-2</coef><coef idx="11">9.7e-3</coef><coef idx="12">.9235</coef><coef idx="13">.1005</coef><coef idx="14">-.6207</coef><coef idx="15">-.5978</coef><coef idx="16">-.5025</coef><coef idx="17">.9402</coef><coef idx="18">.5528</coef><coef idx="19">-.4546</coef></obj></objectives><quadraticCoefficients  numberOfQuadraticTerms="52" ><qTerm  idx="-1"  idxOne="0"  idxTwo="6"  coef="1.667"/><qTerm  idx="-1"  idxOne="1"  idxTwo="2"  coef="1.1174"/><qTerm  idx="-1"  idxOne="1"  idxTwo="8"  coef="-1.4507"/><qTerm  idx="-1"  idxOne="1"  idxTwo="9"  coef="-1.762"/><qTerm  idx="-1"  idxOne="1"  idxTwo="14"  coef=".8026"/><qTerm  idx="-1"  idxOne="1"  idxTwo="16"  coef="1.4557"/><qTerm  idx="-1"  idxOne="2"  idxTwo="6"  coef=".4529"/><qTerm  idx="-1"  idxOne="2"  idxTwo="19"  coef="-.9965"/><qTerm  idx="-1"  idxOne="3"  idxTwo="5"  coef="-.237"/><qTerm  idx="-1"  idxOne="3"  idxTwo="6"  coef="1.3703"/><qTerm  idx="-1"  idxOne="3"  idxTwo="13"  coef="-.7735"/><qTerm  idx="-1"  idxOne="3"  idxTwo="16"  coef=".8382"/><qTerm  idx="-1"  idxOne="3"  idxTwo="18"  coef="-1.4581"/><qTerm  idx="-1"  idxOne="4"  idxTwo="4"  coef="1.8905"/><qTerm  idx="-1"  idxOne="4"  idxTwo="11"  coef="1.963"/><qTerm  idx="-1"  idxOne="4"  idxTwo="12"  coef="-6.47e-2"/><qTerm  idx="-1"  idxOne="4"  idxTwo="16"  coef="-.9675"/><qTerm  idx="-1"  idxOne="4"  idxTwo="18"  coef="1.3911"/><qTerm  idx="-1"  idxOne="5"  idxTwo="6"  coef="-.9725"/><qTerm  idx="-1"  idxOne="5"  idxTwo="9"  coef="-1.0578"/><qTerm  idx="-1"  idxOne="5"  idxTwo="17"  coef="-1.4171"/><qTerm  idx="-1"  idxOne="6"  idxTwo="6"  coef="-1.7049"/><qTerm  idx="-1"  idxOne="6"  idxTwo="7"  coef=".8599"/><qTerm  idx="-1"  idxOne="6"  idxTwo="13"  coef="9.11e-2"/><qTerm  idx="-1"  idxOne="6"  idxTwo="18"  coef=".319"/><qTerm  idx="-1"  idxOne="7"  idxTwo="11"  coef="-1.5141"/><qTerm  idx="-1"  idxOne="7"  idxTwo="14"  coef="1.3157"/><qTerm  idx="-1"  idxOne="7"  idxTwo="15"  coef="-1.5602"/><qTerm  idx="-1"  idxOne="7"  idxTwo="17"  coef=".1747"/><qTerm  idx="-1"  idxOne="7"  idxTwo="19"  coef=".8828"/><qTerm  idx="-1"  idxOne="8"  idxTwo="9"  coef="-.7625"/><qTerm  idx="-1"  idxOne="8"  idxTwo="10"  coef=".3506"/><qTerm  idx="-1"  idxOne="8"  idxTwo="13"  coef="-1.4378"/><qTerm  idx="-1"  idxOne="8"  idxTwo="17"  coef="1.7714"/><qTerm  idx="-1"  idxOne="9"  idxTwo="12"  coef=".7344"/><qTerm  idx="-1"  idxOne="9"  idxTwo="13"  coef="1.2432"/><qTerm  idx="-1"  idxOne="10"  idxTwo="14"  coef=".5907"/><qTerm  idx="-1"  idxOne="10"  idxTwo="16"  coef=".4863"/><qTerm  idx="-1"  idxOne="11"  idxTwo="13"  coef="-.2337"/><qTerm  idx="-1"  idxOne="11"  idxTwo="14"  coef="-1.4289"/><qTerm  idx="-1"  idxOne="11"  idxTwo="15"  coef="1.1012"/><qTerm  idx="-1"  idxOne="12"  idxTwo="12"  coef="-.4074"/><qTerm  idx="-1"  idxOne="12"  idxTwo="13"  coef="-1.0302"/><qTerm  idx="-1"  idxOne="12"  idxTwo="16"  coef="-.9647"/><qTerm  idx="-1"  idxOne="12"  idxTwo="18"  coef="1.9687"/><qTerm  idx="-1"  idxOne="12"  idxTwo="19"  coef=".2368"/><qTerm  idx="-1"  idxOne="13"  idxTwo="14"  coef="1.7309"/><qTerm  idx="-1"  idxOne="13"  idxTwo="17"  coef="1.0147"/><qTerm  idx="-1"  idxOne="14"  idxTwo="14"  coef="-.4171"/><qTerm  idx="-1"  idxOne="14"  idxTwo="19"  coef="1.0324"/><qTerm  idx="-1"  idxOne="16"  idxTwo="17"  coef="1.8287"/><qTerm  idx="-1"  idxOne="18"  idxTwo="18"  coef=".5333"/></quadraticCoefficients></instanceData></osil>
